c 4 __LINUXTHREADS_OLD__
c 1 __UCLIBC_HAS_CTYPE_TABLES__
c 6 __UCLIBC_HAS_IPV6__
c 2 __UCLIBC_HAS_THREADS_NATIVE__
c 10 __UCLIBC_HAS_SOCKET__
c 9 __UCLIBC_HAS_IPV4__
c 3 __UCLIBC_HAS_XLOCALE__
c 7 __UCLIBC_HAS_LOCALE__
c 8 __LINUXTHREADS_NEW__
c 5 __UCLIBC_HAS_THREADS__
p cnf 10 6
-6 1 2 4 -3 -5 7 8 1
-9 1 -3 5 7 1
1 2 4 -10 -3 -5 7 8 1
-6 1 -3 5 7 1
-9 1 2 4 -3 -5 7 8 1
1 -10 -3 5 7 1
